6 1
7 1
8 1
9 0
10 2
11 4
12 3
13 4
14 2
15 0
16 4
17 1
5 14
6 10
7 11
8 13
9 11
10 13
11 10
12 14
13 13
14 13
15 13
16 14
17 13
5 24
6 24
7 23
8 23
9 21
10 23
11 22
12 23
13 21
14 24
15 24
16 23
17 24
5 34
6 34
7 32
8 31
9 30
10 31
11 32
12 33
13 32
14 31
15 34
16 32
17 34
5 42
6 44
7 43
8 40
9 44
10 43
11 40
12 40
13 42
14 41
15 43
16 42
17 43
5 53
6 54
7 51
8 54
9 54
10 53
11 51
12 54
13 54
14 51
15 53
16 54
17 53
5 64
6 60
7 62
8 63
9 64
10 63
11 60
12 61
13 60
14 62
15 63
16 63
17 63
5 71
6 74
7 70
8 74
9 70
10 72
11 70
12 73
13 73
14 74
15 73
16 72
17 72
5 81
6 82
7 82
8 83
9 84
10 82
11 80
12 81
13 81
14 82
15 80
16 81
17 80
5 93
6 90
7 91
8 92
9 94
10 91
11 94
12 93
13 91
14 94
15 90
16 93
17 94
5 101
6 102
7 102
8 103
9 104
10 101
11 102
12 100
13 103
14 102
15 101
16 102
17 101
5 111
6 111
7 113
8 112
9 110
10 114
11 112
12 112
13 113
14 112
15 113
16 112
17 111
5 122
6 120
7 123
8 120
9 121
10 120
11 122
12 120
13 122
14 120
15 123
16 121
17 121
5 132
6 134
7 134
8 131
9 131
10 132
11 131
12 132
13 130
14 133
15 133
16 130
17 130
5 140
6 143
7 141
8 143
